NAME : a280.tour
TYPE : TOUR
DIMENSION : 280
OBJECTIVE : 2752.000000
TIME : 0.175670
TOUR_SECTION
1
280
3
279
278
4
5
6
277
276
275
274
273
272
271
16
15
9
7
8
10
11
12
13
14
24
23
25
22
26
27
28
29
30
31
32
33
34
35
36
37
38
39
40
41
42
43
60
61
62
118
117
86
116
115
114
113
87
84
85
66
65
64
63
59
44
45
46
47
48
49
50
51
52
53
54
55
56
57
58
68
69
67
70
71
72
73
74
75
77
78
79
80
81
82
76
83
88
112
111
110
108
104
109
89
90
91
92
93
94
95
96
97
98
99
100
101
102
103
169
168
167
166
172
171
170
105
107
106
173
174
161
162
163
164
165
187
188
189
190
186
185
184
183
182
175
160
159
158
157
119
120
121
122
123
124
125
126
127
128
21
20
19
18
17
133
132
131
130
129
154
155
153
156
152
151
177
176
181
180
179
178
150
149
148
147
146
143
142
141
140
139
138
137
136
135
134
270
269
268
267
266
265
264
263
262
261
260
259
258
257
254
253
208
209
210
207
206
205
204
203
202
201
200
144
145
199
198
197
193
191
192
194
195
196
221
220
217
216
213
212
211
214
215
218
219
222
223
224
225
226
227
228
229
231
232
233
234
235
236
237
238
239
240
245
246
250
251
230
252
255
256
249
248
247
244
241
243
242
2
-1
EOF